
  32    4
  10   10   10   10

   0   0   0   0   0   1 2 
   8   0   1   1   1   2 6 3 
   7   1   6   6   0   1 4 
   6   2   3   1   0   1 5 
   8   4   4   0   5   2 11 7 
   3   0   5   4   4   2 11 7 
   5   0   7   2   3   2 10 8 
   1   4   4   0   5   1 9 
   4   4   3   5   0   2 13 12 
   1   0   4   3   5   2 14 12 
   6   4   0   3   4   2 14 12 
   3   3   0   5   3   2 17 15 
   1   0   6   2   3   1 14 
  10   3   2   0   4   1 15 
   7   0   4   9   1   1 16 
   1   4   0   6   5   2 20 18 
   4   0   3   4   4   2 20 19 
   5   5   0   4   1   1 19 
   5   5   4   4   0   1 21 
  10   6   0   6   3   1 21 
  10   5   5   2   0   2 24 22 
  10   4   2   0   6   1 23 
   4   0   3   3   2   2 27 25 
   5   4   1   0   7   2 27 25 
  10   2   0   6   3   1 26 
   1   5   0   3  10   1 28 
   7   3   5   2   0   1 29 
   5   0   7   4   6   1 30 
   1   4   2   4   0   1 30 
   1   5   5   7   0   1 31 
  10   7   6   0   3   1 32
   0   0   0   0   0   0 
